
Gurobi 13.0.1 (linux64) logging started Tue Apr  7 19:49:34 2026

Set parameter LogFile to value "logs_sparse/100B_3F_robust_gamma_0d025_theta_0d05199999999999999_2026-04-07_19h49m09s.log"
Set parameter MIPGap to value 0.005
Set parameter OptimalityTol to value 0.005
Gurobi Optimizer version 13.0.1 build v13.0.1rc0 (linux64 - "Linux Mint 22")

CPU model: 12th Gen Intel(R) Core(TM) i7-12700, instruction set [SSE2|AVX|AVX2]
Thread count: 20 physical cores, 20 logical processors, using up to 20 threads

Non-default parameters:
TimeLimit  3600
SoftMemLimit  12
MIPGap  0.005
OptimalityTol  0.005

Optimize a model with 60721 rows, 1531121 columns and 4635098 nonzeros (Max)
Model fingerprint: 0x19d20414
Model has 1485111 linear objective coefficients
Variable types: 16121 continuous, 1515000 integer (1515000 binary)
Coefficient statistics:
  Matrix range     [3e-05, 1e+05]
  Objective range  [1e+00, 3e+03]
  Bounds range     [1e+00, 1e+05]
  RHS range        [1e+00, 1e+05]

Presolve removed 36714 rows and 1241081 columns
Presolve time: 0.72s
Presolved: 24007 rows, 290040 columns, 921754 nonzeros
Variable types: 6446 continuous, 283594 integer (283594 binary)
Found heuristic solution: objective -4.87430e+08
Performing another presolve...
Presolve removed 18 rows and 95 columns
Presolve time: 1.26s
Deterministic concurrent LP optimizer: primal simplex, dual simplex, and barrier
Showing barrier log only...

Root barrier log...

Ordering time: 0.59s

Barrier statistics:
 AA' NZ     : 4.530e+05
 Factor NZ  : 4.046e+06 (roughly 160 MB of memory)
 Factor Ops : 1.382e+09 (less than 1 second per iteration)
 Threads    : 18

                  Objective                Residual
Iter       Primal          Dual         Primal    Dual     Compl     Time
   0  -1.47170973e+13  1.35089388e+09  5.82e+08 1.02e+03  1.49e+08     4s
   1  -1.78340072e+12  5.06952925e+09  7.06e+07 3.10e+02  1.83e+07     4s
   2  -7.58392146e+09  4.37845850e+09  3.24e+05 2.39e-11  9.07e+04     4s
   3  -4.28924076e+08  1.74439343e+09  1.86e+04 1.13e-10  7.56e+03     4s
   4   1.76860962e+08  1.14463365e+09  4.96e+03 3.32e-11  2.45e+03     4s
   5   3.00595462e+08  6.92010545e+08  1.70e+03 2.51e-11  9.01e+02     4s
   6   3.75863219e+08  4.35321145e+08  2.94e+02 2.91e-11  1.37e+02     4s
   7   3.81994309e+08  4.18738246e+08  2.00e+02 3.66e-11  8.63e+01     4s
   8   3.84403201e+08  4.11717386e+08  1.63e+02 3.39e-11  6.57e+01     4s
   9   3.90823410e+08  4.03147510e+08  5.39e+01 8.62e-11  2.72e+01     4s
  10   3.92933187e+08  3.99190185e+08  1.84e+01 7.22e-11  1.26e+01     4s
  11   3.93720445e+08  3.95856533e+08  5.45e+00 6.30e-11  4.08e+00     4s
  12   3.93986720e+08  3.94978788e+08  1.68e+00 7.87e-11  1.76e+00     4s
  13   3.94087811e+08  3.94531261e+08  6.73e-01 3.47e-10  7.59e-01     5s
  14   3.94142086e+08  3.94408043e+08  2.94e-01 3.07e-10  4.51e-01     5s
  15   3.94176349e+08  3.94321465e+08  1.25e-01 2.53e-10  2.46e-01     5s
  16   3.94192227e+08  3.94278568e+08  6.51e-02 2.65e-10  1.46e-01     5s
  17   3.94208293e+08  3.94251427e+08  1.45e-02 2.20e-10  7.29e-02     5s
  18   3.94210558e+08  3.94235204e+08  9.53e-03 2.43e-10  4.16e-02     5s
  19   3.94213727e+08  3.94227351e+08  3.14e-03 2.19e-10  2.30e-02     5s
  20   3.94214681e+08  3.94223099e+08  1.39e-03 2.43e-10  1.42e-02     5s
  21   3.94215179e+08  3.94221004e+08  6.84e-04 2.32e-10  9.84e-03     5s
  22   3.94215313e+08  3.94219263e+08  4.84e-04 2.23e-10  6.67e-03     5s
  23   3.94215425e+08  3.94218434e+08  3.58e-04 2.84e-10  5.08e-03     5s
  24   3.94215453e+08  3.94217874e+08  3.27e-04 2.42e-10  4.09e-03     5s
  25   3.94215535e+08  3.94217332e+08  2.26e-04 2.36e-10  3.04e-03     5s
  26   3.94215584e+08  3.94216702e+08  1.62e-04 2.45e-10  1.89e-03     5s
  27   3.94215647e+08  3.94216469e+08  1.04e-04 2.65e-10  1.39e-03     5s
  28   3.94215686e+08  3.94216350e+08  6.82e-05 2.65e-10  1.12e-03     5s
  29   3.94215714e+08  3.94216256e+08  4.68e-05 3.04e-10  9.15e-04     6s
  30   3.94215732e+08  3.94216098e+08  2.93e-05 2.69e-10  6.19e-04     6s
  31   3.94215750e+08  3.94215983e+08  1.68e-05 2.56e-10  3.93e-04     6s
  32   3.94215760e+08  3.94215884e+08  9.32e-06 2.30e-10  2.10e-04     6s
  33   3.94215765e+08  3.94215852e+08  6.45e-06 2.50e-10  1.48e-04     6s
  34   3.94215768e+08  3.94215815e+08  4.56e-06 2.16e-10  7.94e-05     6s
  35   3.94215771e+08  3.94215803e+08  2.46e-06 2.45e-10  5.41e-05     6s
  36   3.94215772e+08  3.94215793e+08  1.68e-06 2.28e-10  3.57e-05     6s
  37   3.94215774e+08  3.94215780e+08  6.45e-07 1.90e-10  1.00e-05     6s
  38   3.94215775e+08  3.94215778e+08  1.25e-07 2.42e-10  5.22e-06     6s

Barrier solved model in 38 iterations and 6.14 seconds (8.67 work units)
Optimal objective 3.94215775e+08


Root crossover log...

    6926 DPushes remaining with DInf 0.0000000e+00                 6s
       0 DPushes remaining with DInf 0.0000000e+00                 6s

    5839 PPushes remaining with PInf 1.1613490e-01                 6s
       0 PPushes remaining with PInf 0.0000000e+00                 7s

  Push phase complete: Pinf 0.0000000e+00, Dinf 4.1892885e+04      7s


Root simplex log...

Iteration    Objective       Primal Inf.    Dual Inf.      Time
   12544    3.9421578e+08   0.000000e+00   4.189278e+04      7s
   13127    3.9421578e+08   0.000000e+00   0.000000e+00      7s
Crossover time: 0.54 seconds (0.49 work units)
Concurrent spin time: 1.09s (can be avoided by choosing Method=3)

Solved with barrier

Root relaxation: objective 3.942158e+08, 13127 iterations, 5.17 seconds (4.75 work units)
Total elapsed time = 7.80s (DegenMoves)

    Nodes    |    Current Node    |     Objective Bounds      |     Work
 Expl Unexpl |  Obj  Depth IntInf | Incumbent    BestBd   Gap | It/Node Time

     0     0 3.9422e+08    0 7363 -4.874e+08 3.9422e+08   181%     -    8s
H    0     0                    3.034223e+07 3.9422e+08  1199%     -    9s
H    0     0                    9.981986e+07 3.9422e+08   295%     -    9s
H    0     0                    1.000538e+08 3.9422e+08   294%     -    9s
H    0     0                    2.399733e+08 3.9422e+08  64.3%     -   12s
H    0     0                    2.899952e+08 3.9422e+08  35.9%     -   13s
     0     0 3.9422e+08    0 6977 2.9000e+08 3.9422e+08  35.9%     -  372s
H    0     0                    3.108892e+08 3.9422e+08  26.8%     -  443s
H    0     0                    3.117249e+08 3.9422e+08  26.5%     -  503s
H    0     0                    3.168538e+08 3.9422e+08  24.4%     -  579s
H    0     0                    3.181963e+08 3.9422e+08  23.9%     -  657s
     0     0 3.9422e+08    0 6977 3.1820e+08 3.9422e+08  23.9%     -  817s
     0     0 3.9421e+08    0 6970 3.1820e+08 3.9421e+08  23.9%     - 1794s
H    0     0                    3.407368e+08 3.9421e+08  15.7%     - 1795s
H    0     0                    3.417479e+08 3.9421e+08  15.4%     - 1796s
H    0     0                    3.697467e+08 3.9421e+08  6.62%     - 1805s
H    0     0                    3.720381e+08 3.9421e+08  5.96%     - 1806s
H    0     0                    3.732615e+08 3.9421e+08  5.61%     - 1812s
H    0     0                    3.762603e+08 3.9421e+08  4.77%     - 1819s
H    0     0                    3.799940e+08 3.9421e+08  3.74%     - 1867s
H    0     0                    3.804062e+08 3.9421e+08  3.63%     - 1968s
H    0     0                    3.806587e+08 3.9421e+08  3.56%     - 2120s
H    0     0                    3.806877e+08 3.9421e+08  3.55%     - 2276s
H    0     0                    3.807506e+08 3.9421e+08  3.54%     - 2276s
H    0     0                    3.807839e+08 3.9421e+08  3.53%     - 2339s
     0     0 3.9421e+08    0 6941 3.8078e+08 3.9421e+08  3.53%     - 3099s
     0     0 3.9421e+08    0 6963 3.8078e+08 3.9421e+08  3.53%     - 3220s
     0     0 3.9421e+08    0 7068 3.8078e+08 3.9421e+08  3.53%     - 3425s
     0     0 3.9421e+08    0 7010 3.8078e+08 3.9421e+08  3.53%     - 3473s
     0     0          -    0      3.8078e+08 3.9421e+08  3.53%     - 3600s

Cutting planes:
  MIR: 56
  Flow cover: 102
  RLT: 2316
  Relax-and-lift: 82

Explored 1 nodes (1351569 simplex iterations) in 3600.05 seconds (6779.14 work units)
Thread count was 20 (of 20 available processors)

Solution count 10: 3.80784e+08 3.80751e+08 3.80688e+08 ... 3.69747e+08

Time limit reached
Best objective 3.807839445400e+08, best bound 3.942131150582e+08, gap 3.5267%
